{% if subworkflowContext.MATERIAL_INDEX %}
{%- set input = input.perMaterial[subworkflowContext.MATERIAL_INDEX] -%}
{% endif -%}
&CONTROL
    calculation = 'cp-wf'
    title = ''
    restart_mode = '{{ input.RESTART_MODE }}'
    tstress = .true.
    tprnfor = .true.
    outdir = {% raw %}'{{ JOB_WORK_DIR }}/outdir'{% endraw %}
    prefix = 'cp_wf'
    pseudo_dir = {% raw %}'{{ JOB_WORK_DIR }}/pseudo'{% endraw %}
    nstep = {{ md.nstep }}
    iprint = 1
    dt = {{ md.dt }}
/
&SYSTEM
    ibrav = {{ input.IBRAV }}
    nat = {{ input.NAT }}
    ntyp = {{ input.NTYP }}
    ecutwfc = {{ cutoffs.wavefunction }}
!    ecutrho = {{ cutoffs.density }}
/
&ELECTRONS
    electron_dynamics = 'verlet'
    electron_velocities = 'zero'
    emass = {{ md.emass }}
/
&IONS
    ion_dynamics = 'verlet'
    ion_velocities = 'zero'
    tempw = {{ md.tempw }}
/
&CELL
/
ATOMIC_SPECIES
{{ input.ATOMIC_SPECIES }}
ATOMIC_POSITIONS crystal
{{ input.ATOMIC_POSITIONS }}
CELL_PARAMETERS angstrom
{{ input.CELL_PARAMETERS }}
